VER
2

OBJSENSE
MIN

VAR
3 1
F 3

INT
3
0
1
2

CON
2 1
L+ 2

PSDCON
2
2
2

OBJACOORD
3
0 1
1 -2
2 -1

ACOORD
6
0 0 1
0 1 1
0 2 1
1 0 -1
1 1 -1
1 2 -1

BCOORD
2
0 -1
1 8

HCOORD
5
0 0 0 0 1
0 1 1 0 1
0 2 1 1 1
1 0 1 0 1
1 2 0 0 1

DCOORD
1
1 1 1 2.1
